n_res = 4;
rcap = [5, 14, 77, 92];
rtype = [1, 1, 2, 2];
n_tasks = 18;
modes = [ {1, 2, 3}, {4, 5, 6}, {7, 8, 9}, {10, 11, 12}, {13, 14, 15}, {16, 17, 18}, {19, 20, 21}, {22, 23, 24}, {25, 26, 27}, {28, 29, 30}, {31, 32, 33}, {34, 35, 36}, {37, 38, 39}, {40, 41, 42}, {43, 44, 45}, {46, 47, 48}, {49, 50, 51}, {52, 53, 54} ];
succ = [ {4, 10}, {6, 8}, {8, 13, 16}, {5, 7, 12}, {9, 14, 16}, {11, 15}, {9, 13}, {10, 12, 14}, {11}, {11}, {17, 18}, {17, 18}, {14}, {15, 18}, {17}, {}, {}, {} ];
n_opt = 54;
dur = [4, 10, 10, 2, 8, 10, 1, 4, 7, 6, 8, 10, 2, 5, 8, 1, 3, 4, 2, 5, 7, 3, 4, 7, 3, 3, 7, 1, 5, 6, 4, 5, 7, 2, 8, 9, 4, 6, 10, 2, 3, 4, 1, 5, 7, 1, 2, 5, 4, 6, 9, 2, 2, 5];
rreq = [|  0,  0,  5,  9,  0,  0,  4,  3,  0,  0,  0, 10,  7,  0,  0,  4,  3,  0,  0,  0,  0,  4,  0,  0,  5,  0,  0,  0,  0,  0,  9,  0,  0,  0,  0,  0,  0,  2,  0,  0,  0,  3,  0,  6,  0,  7,  6,  0,  0,  0,  0,  0,  0,  0
        |  5,  3,  0,  0,  3,  3,  0,  0,  7,  3,  2,  0,  0,  8,  8,  0,  0,  9,  6,  4,  2,  0,  6,  2,  0,  8,  7, 10,  9,  9,  0,  9,  9,  7,  4,  3,  5,  0,  5, 10, 10,  0,  7,  0,  6,  0,  0,  3,  6,  4,  3,  3,  3,  2
        |  7,  0,  0,  0,  0,  0,  8,  6,  4,  0, 10,  0,  0,  0,  0,  8,  0,  4,  0,  2,  0,  2,  0,  0,  0,  9,  1,  0,  6,  0,  0,  3,  0,  0,  0,  8,  0,  7,  5,  0,  2,  0,  8,  7,  7,  0,  9,  5,  8,  4,  0,  2,  0,  0
        |  0,  1,  2,  8,  6,  2,  0,  0,  0,  9,  0,  8,  8,  8,  7,  0,  8,  0,  7,  0,  7,  0, 10,  6,  6,  0,  0,  9,  0,  7, 10,  0,  7, 10,  9,  0,  4,  0,  0,  6,  0,  4,  0,  0,  0,  9,  0,  0,  0,  0,  7,  0,  6,  3 |];
